<?xml version = "1.0" standalone="yes"?>
<!-- This file has been generated by DOcplex version 2.23.222  -->
<CPLEXSolution version="1.0">
 <header
   problemName="CVRP"
   objectiveValue="15027.7"
  />
 <variables>
  <variable name="x_0_2" index="1" value="1.00000"/>
  <variable name="x_0_4" index="3" value="1.00000"/>
  <variable name="x_0_5" index="4" value="1.00000"/>
  <variable name="x_0_7" index="6" value="1.00000"/>
  <variable name="x_0_8" index="7" value="1.00000"/>
  <variable name="x_0_10" index="9" value="1.00000"/>
  <variable name="x_0_15" index="14" value="1.00000"/>
  <variable name="x_0_17" index="16" value="1.00000"/>
  <variable name="x_0_19" index="18" value="1.00000"/>
  <variable name="x_0_20" index="19" value="1.00000"/>
  <variable name="x_1_0" index="20" value="1.00000"/>
  <variable name="x_2_3" index="42" value="1.00000"/>
  <variable name="x_3_0" index="60" value="1.00000"/>
  <variable name="x_4_9" index="88" value="1.00000"/>
  <variable name="x_5_16" index="115" value="1.00000"/>
  <variable name="x_6_0" index="120" value="1.00000"/>
  <variable name="x_7_0" index="140" value="1.00000"/>
  <variable name="x_8_6" index="166" value="1.00000"/>
  <variable name="x_9_0" index="180" value="1.00000"/>
  <variable name="x_10_0" index="200" value="1.00000"/>
  <variable name="x_11_0" index="220" value="1.00000"/>
  <variable name="x_12_11" index="251" value="1.00000"/>
  <variable name="x_13_12" index="272" value="1.00000"/>
  <variable name="x_14_0" index="280" value="1.00000"/>
  <variable name="x_15_0" index="300" value="1.00000"/>
  <variable name="x_16_14" index="334" value="1.00000"/>
  <variable name="x_17_1" index="341" value="1.00000"/>
  <variable name="x_18_0" index="360" value="1.00000"/>
  <variable name="x_19_18" index="398" value="1.00000"/>
  <variable name="x_20_13" index="413" value="1.00000"/>
  <variable name="u_1" index="420" value="21.00000"/>
  <variable name="u_2" index="421" value="7.00000"/>
  <variable name="u_3" index="422" value="21.00000"/>
  <variable name="u_4" index="423" value="14.00000"/>
  <variable name="u_5" index="424" value="2.00000"/>
  <variable name="u_6" index="425" value="21.00000"/>
  <variable name="u_7" index="426" value="22.00000"/>
  <variable name="u_8" index="427" value="14.00000"/>
  <variable name="u_9" index="428" value="17.00000"/>
  <variable name="u_10" index="429" value="21.00000"/>
  <variable name="u_11" index="430" value="22.00000"/>
  <variable name="u_12" index="431" value="20.00000"/>
  <variable name="u_13" index="432" value="8.00000"/>
  <variable name="u_14" index="433" value="22.00000"/>
  <variable name="u_15" index="434" value="22.00000"/>
  <variable name="u_16" index="435" value="6.00000"/>
  <variable name="u_17" index="436" value="5.00000"/>
  <variable name="u_18" index="437" value="21.00000"/>
  <variable name="u_19" index="438" value="3.00000"/>
  <variable name="u_20" index="439" value="6.00000"/>
 </variables>
</CPLEXSolution>
